1 2 29
1 3 6
1 4 35
1 5 75
1 6 83
1 7 52
1 8 81
1 9 84
1 10 80
1 11 87
1 12 46
1 13 22
1 14 77
1 15 72
2 3 87
2 4 49
2 5 55
2 6 37
2 7 81
2 8 66
2 9 83
2 10 15
2 11 33
2 12 98
2 13 90
2 14 2
2 15 49
3 4 64
3 5 61
3 6 19
3 7 49
3 8 26
3 9 51
3 10 51
3 11 19
3 12 6
3 13 74
3 14 93
3 15 39
4 5 35
4 6 39
4 7 86
4 8 46
4 9 28
4 10 32
4 11 5
4 12 80
4 13 44
4 14 29
4 15 92
5 6 15
5 7 58
5 8 79
5 9 1
5 10 7
5 11 7
5 12 97
5 13 80
5 14 7
5 15 67
6 7 25
6 8 95
6 9 90
6 10 81
6 11 25
6 12 58
6 13 86
6 14 15
6 15 90
7 8 99
7 9 74
7 10 17
7 11 97
7 12 3
7 13 86
7 14 95
7 15 52
8 9 13
8 10 8
8 11 27
8 12 95
8 13 81
8 14 4
8 15 61
9 10 60
9 11 81
9 12 96
9 13 73
9 14 53
9 15 49
10 11 51
10 12 54
10 13 76
10 14 50
10 15 9
11 12 19
11 13 5
11 14 16
11 15 92
12 13 77
12 14 85
12 15 36
13 14 57
13 15 84
14 15 24
